20
35	204	36	5	52
33	430	398	2	40
43	314	293	47	36
20	305	534	65	39
44	71	514	71	87
35	558	46	76	30
47	590	49	16	36
6	358	528	18	13
29	550	445	75	63
40	52	390	54	57
11	118	331	37	38
5	607	205	70	49
36	158	275	49	82
47	158	526	29	51
39	382	135	56	4
22	442	394	22	42
25	80	358	54	68
18	3	350	15	71
45	219	145	42	24
27	324	121	1	9
